networks/zoo_82_984/zoo_82_984.txt
Number of groups: 54
Flow 5: {1 8} 
Flow 12: {2 33} {33 25} {25 66} 
Flow 34: {3 25} {25 32} {32 73} 
Flow 38: {3 33} {33 38} {38 37} {37 78} 
Flow 41: {4 33} 
Flow 57: {5 8} {8 26} 
Flow 86: {6 22} {22 40} {40 81} 
Flow 94: {7 8} {8 30} {30 16} {16 18} {18 59} 
Flow 107: {33 4} {4 45} 
Flow 137: {22 35} {35 76} 
Flow 141: {38 39} {39 80} 
Flow 146: {9 8} {8 25} {25 29} {29 13} {13 54} 
Flow 163: {10 8} {8 49} 
Flow 185: {11 22} {22 14} {14 13} 
Flow 208: {12 22} {22 6} {6 47} 
Flow 226: {38 36} {36 77} 
Flow 240: {22 12} {12 53} 
Flow 251: {29 22} {22 24} 
Flow 255: {13 28} 
Flow 276: {14 22} {22 19} {19 60} 
Flow 277: {13 29} {29 21} {21 62} 
Flow 294: {15 16} {16 57} 
Flow 327: {30 8} {8 1} {1 42} 
Flow 362: {17 16} {16 22} {22 41} {41 82} 
Flow 369: {8 10} {10 51} 
Flow 375: {18 16} {16 17} {17 58} 
Flow 393: {25 8} {8 5} {5 46} 
Flow 398: {19 22} {22 11} {11 52} 
Flow 436: {20 22} {22 32} 
Flow 444: {8 7} {7 48} 
Flow 457: {21 25} {25 22} {22 20} {20 61} 
Flow 463: {21 29} {29 30} {30 27} {27 68} 
Flow 526: {23 22} {22 29} {29 70} 
Flow 545: {24 30} {30 31} {31 72} 
Flow 548: {24 22} {22 38} {38 79} 
Flow 574: {10 27} 
Flow 590: {26 25} {25 33} {33 2} {2 43} 
Flow 596: {26 8} {8 9} {9 50} 
Flow 619: {38 34} {34 75} 
Flow 625: {28 29} {29 25} {25 3} {3 44} 
Flow 629: {28 13} {13 14} {14 55} 
Flow 745: {31 30} {30 24} {24 65} 
Flow 749: {30 29} {29 28} {28 69} 
Flow 780: {32 22} {22 23} {23 64} 
Flow 782: {32 25} {25 26} {26 67} 
Flow 837: {16 15} {15 56} 
Flow 849: {34 38} {38 33} {33 74} 
Flow 858: {35 22} {22 25} {25 21} 
Flow 882: {36 38} 
Flow 888: {37 38} 
Flow 932: {33 3} 
Flow 935: {39 38} {38 22} 
Flow 962: {40 22} {22 16} {16 30} {30 71} 
Flow 977: {41 22} {22 63} 
Time taken running everything: 26 seconds
